CMD:
./solvers/bin/cadical --plain --no-reduce -t 1600 ./data/cnfs//arbitrated_top_n3_w16_d32_e0/arbitrated_top_n3_w16_d32_e0.82.cnf

c --- [ banner ] -------------------------------------------------------------
c 
c CaDiCaL SAT Solver
c Copyright (c) 2016-2024
c A. Biere, M. Fleury, N. Froleyks, K. Fazekas, F. Pollitt, T. Faller
c JKU Linz, University of Freiburg, TU Wien
c 
c Version 2.1.3 5296d3d2a9bf48c154ab2acb5e44625776d821bf
c g++ (Gentoo 12.3.1_p20230526 p2) 12.3.1 20230526 -Wall -Wextra -O3 -DNDEBUG
c Sat Aug 9 07:26:21 PDT 2025 Linux cedar2.int.cedar.computecanada.ca 5.14.0-362.24.2.el9_3.x86_64 x86_64
c 
c --- [ limit ] --------------------------------------------------------------
c 
c setting time limit to 1600 seconds real time (due to '-t 1600')
c 
c --- [ parsing input ] ------------------------------------------------------
c 
c reading DIMACS file from './data/cnfs//arbitrated_top_n3_w16_d32_e0/arbitrated_top_n3_w16_d32_e0.82.cnf'
c opening file to read './data/cnfs//arbitrated_top_n3_w16_d32_e0/arbitrated_top_n3_w16_d32_e0.82.cnf'
c found 'p cnf 780884 2323005' header
c parsed 2323005 clauses in 0.33 seconds process time
c 
c --- [ options ] ------------------------------------------------------------
c 
c   --compact=false                (different from default 'true')
c   --decompose=false              (different from default 'true')
c   --deduplicate=false            (different from default 'true')
c   --elim=false                   (different from default 'true')
c   --probe=false                  (different from default 'true')
c   --reduce=false                 (different from default 'true')
c   --subsume=false                (different from default 'true')
c   --ternary=false                (different from default 'true')
c   --transred=false               (different from default 'true')
c   --vivify=false                 (different from default 'true')
c 
c --- [ solving ] ------------------------------------------------------------
c 
c time measured in process time since initialization
c 
c  seconds   reductions  redundant   irredundant
c          MB    restarts       trail        variables
c           level   conflicts       glue           remaining
c 
c *  0.33 313  0 0   0    0    0  0% 0 1813633 413092 53%
c l  0.37 318  0 0   0    0    0  0% 0 1813633 413092 53%
c 1  0.37 318  0 0   0    0    0  0% 0 1813633 413092 53%
c 
c --- [ result ] -------------------------------------------------------------
c 
s SATISFIABLE
v 1 2 3 4 5 6 7 8 9 10 11 12 13 14 15 16 17 18 19 20 21 22 23 24 25 26 27 28
v 29 30 31 32 33 34 35 36 37 38 39 40 41 42 43 44 45 46 47 48 49 50 51 52 53
v 54 55 56 57 58 59 60 61 62 63 64 65 66 67 68 69 70 71 72 73 74 75 76 77 78
v 79 80 81 82 83 84 85 86 87 88 89 90 91 92 93 94 95 96 97 98 99 100 101 102
v 103 104 105 106 107 108 109 110 111 112 113 114 115 116 117 118 119 120 121
v 122 123 124 125 126 127 128 129 130 131 132 133 134 135 136 137 138 139 140
v 141 142 143 144 145 146 147 148 149 150 151 152 153 154 155 156 157 158 159
v 160 161 162 163 164 165 166 167 168 169 170 171 172 173 174 175 176 177 178
v 179 180 181 182 183 184 185 186 187 188 189 190 191 192 193 194 195 196 197
v 198 199 200 201 202 203 204 205 206 207 208 209 210 211 212 213 214 215 216
v 217 218 219 220 221 222 223 224 225 226 227 228 229 230 231 232 233 234 235
v 236 237 238 239 240 241 242 243 244 245 246 247 248 249 250 251 252 253 254
v 255 256 257 258 259 260 261 262 263 264 265 266 267 268 269 270 271 272 273
v 274 275 276 277 278 279 280 281 282 283 284 285 286 287 288 289 290 291 292
v 293 294 295 296 297 298 299 300 301 302 303 304 305 306 307 308 309 310 311
v 312 313 314 315 316 317 318 319 320 321 322 323 324 325 326 327 328 329 330
v 331 332 333 334 335 336 337 338 339 340 341 342 343 344 345 346 347 348 349
v 350 351 352 353 354 355 356 357 358 359 360 361 362 363 364 365 366 367 368
v 369 370 371 372 373 374 375 376 377 378 379 380 381 382 383 384 385 386 387
v 388 389 390 391 392 393 394 395 396 397 398 399 400 401 402 403 404 405 406
v 407 408 409 410 411 412 413 414 415 416 417 418 419 420 421 422 423 424 425
v 426 427 428 429 430 431 432 433 434 435 436 437 438 439 440 441 442 443 444
v 445 446 447 448 449 450 451 452 453 454 455 456 457 458 459 460 461 462 463
v 464 465 466 467 468 469 470 471 472 473 474 475 476 477 478 479 480 481 482
v 483 484 485 486 487 488 489 490 491 492 493 494 495 496 497 498 499 500 501
v 502 503 504 505 506 507 508 509 510 511 512 513 514 515 516 517 518 519 520
v 521 522 523 524 525 526 527 528 529 530 531 532 533 534 535 536 537 538 539
v 540 541 542 543 544 545 546 547 548 549 550 551 552 553 554 555 556 557 558
v 559 560 561 562 563 564 565 566 567 568 569 570 571 572 573 574 575 576 577
v 578 579 580 581 582 583 584 585 586 587 588 589 590 591 592 593 594 595 596
v 597 598 599 600 601 602 603 604 605 606 607 608 609 610 611 612 613 614 615
v 616 617 618 619 620 621 622 623 624 625 626 627 628 629 630 631 632 633 634
v 635 636 637 638 639 640 641 642 643 644 645 646 647 648 649 650 651 652 653
v 654 655 656 657 658 659 660 661 662 663 664 665 666 667 668 669 670 671 672
v 673 674 675 676 677 678 679 680 681 682 683 684 685 686 687 688 689 690 691
v 692 693 694 695 696 697 698 699 700 701 702 703 704 705 706 707 708 709 710
v 711 712 713 714 715 716 717 718 719 720 721 722 723 724 725 726 727 728 729
v 730 731 732 733 734 735 736 737 738 739 740 741 742 743 744 745 746 747 748
v 749 750 751 752 753 754 755 756 757 758 759 760 761 762 763 764 765 766 767
v 768 769 770 771 772 773 774 775 776 777 778 779 780 781 782 783 784 785 786
v 787 788 789 790 791 792 793 794 795 796 797 798 799 800 801 802 803 804 805
v 806 807 808 809 810 811 812 813 814 815 816 817 818 819 820 821 822 823 824
v 825 826 827 828 829 830 831 832 833 834 835 836 837 838 839 840 841 842 843
v 844 845 846 847 848 849 850 851 852 853 854 855 856 857 858 859 860 861 862
v 863 864 865 866 867 868 869 870 871 872 873 874 875 876 877 878 879 880 881
v 882 883 884 885 886 887 888 889 890 891 892 893 894 895 896 897 898 899 900
v 901 902 903 904 905 906 907 908 909 910 911 912 913 914 915 916 917 918 919
... skipped 80088 lines ...
v -780300 -780301 -780302 -780303 -780304 -780305 -780306 -780307 -780308
v -780309 -780310 -780311 -780312 -780313 -780314 -780315 -780316 780317
v -780318 780319 -780320 780321 780322 -780323 -780324 -780325 -780326 -780327
v 780328 780329 -780330 -780331 -780332 -780333 -780334 -780335 -780336 780337
v -780338 780339 -780340 -780341 -780342 780343 780344 -780345 780346 -780347
v -780348 -780349 780350 780351 -780352 780353 -780354 -780355 -780356 780357
v 780358 -780359 780360 780361 -780362 -780363 780364 780365 -780366 -780367
v -780368 -780369 -780370 -780371 -780372 -780373 -780374 -780375 -780376
v -780377 -780378 -780379 -780380 -780381 -780382 -780383 -780384 -780385
v -780386 -780387 -780388 -780389 -780390 -780391 -780392 -780393 -780394
v -780395 -780396 -780397 -780398 -780399 -780400 -780401 -780402 -780403
v -780404 -780405 -780406 -780407 -780408 -780409 -780410 -780411 -780412
v -780413 -780414 780415 -780416 780417 -780418 -780419 -780420 -780421
v -780422 -780423 -780424 -780425 -780426 -780427 -780428 -780429 -780430
v -780431 -780432 -780433 -780434 -780435 -780436 -780437 -780438 -780439
v -780440 -780441 -780442 -780443 -780444 -780445 -780446 -780447 -780448
v -780449 -780450 780451 -780452 780453 -780454 -780455 -780456 -780457
v -780458 -780459 -780460 -780461 -780462 -780463 -780464 -780465 -780466
v -780467 -780468 -780469 -780470 -780471 -780472 -780473 -780474 -780475
v -780476 -780477 -780478 -780479 -780480 -780481 -780482 -780483 -780484
v -780485 -780486 780487 -780488 780489 -780490 -780491 -780492 -780493
v -780494 -780495 -780496 -780497 -780498 -780499 -780500 -780501 -780502
v -780503 -780504 -780505 -780506 -780507 -780508 -780509 -780510 -780511
v -780512 -780513 -780514 -780515 -780516 -780517 -780518 -780519 -780520
v -780521 -780522 780523 -780524 780525 -780526 -780527 780528 -780529 -780530
v -780531 -780532 -780533 -780534 780535 780536 -780537 -780538 -780539 780540
v -780541 780542 -780543 -780544 780545 -780546 780547 -780548 -780549 780550
v -780551 780552 -780553 -780554 780555 -780556 780557 -780558 -780559 780560
v -780561 780562 780563 -780564 -780565 780566 -780567 -780568 -780569 -780570
v -780571 -780572 780573 -780574 -780575 -780576 -780577 -780578 -780579
v 780580 -780581 -780582 -780583 -780584 -780585 -780586 780587 -780588
v -780589 -780590 -780591 -780592 -780593 780594 -780595 -780596 -780597
v -780598 -780599 -780600 780601 -780602 -780603 -780604 -780605 -780606
v -780607 -780608 -780609 -780610 -780611 -780612 -780613 -780614 -780615
v -780616 -780617 -780618 -780619 -780620 -780621 -780622 -780623 -780624
v -780625 -780626 -780627 -780628 -780629 -780630 -780631 -780632 -780633
v -780634 -780635 -780636 780637 -780638 780639 -780640 -780641 -780642
v -780643 -780644 -780645 -780646 -780647 -780648 -780649 -780650 -780651
v -780652 -780653 -780654 -780655 -780656 -780657 -780658 -780659 -780660
v -780661 -780662 -780663 -780664 -780665 -780666 -780667 -780668 -780669
v -780670 -780671 -780672 -780673 780674 -780675 -780676 -780677 -780678
v -780679 -780680 -780681 -780682 -780683 -780684 -780685 -780686 -780687
v -780688 -780689 -780690 -780691 -780692 -780693 -780694 -780695 -780696
v -780697 -780698 -780699 -780700 -780701 -780702 -780703 -780704 -780705
v -780706 -780707 -780708 -780709 780710 -780711 780712 -780713 780714 -780715
v 780716 -780717 -780718 780719 780720 -780721 -780722 780723 -780724 -780725
v -780726 -780727 -780728 -780729 -780730 -780731 -780732 780733 780734
v -780735 780736 -780737 -780738 -780739 780740 780741 -780742 780743 -780744
v -780745 -780746 780747 780748 -780749 780750 -780751 -780752 -780753 -780754
v 780755 -780756 780757 -780758 780759 -780760 -780761 780762 -780763 -780764
v 780765 -780766 -780767 780768 -780769 -780770 780771 780772 -780773 780774
v -780775 -780776 -780777 -780778 -780779 -780780 -780781 -780782 -780783
v -780784 -780785 -780786 -780787 -780788 -780789 -780790 -780791 -780792
v -780793 -780794 -780795 -780796 -780797 -780798 -780799 -780800 -780801
v -780802 -780803 -780804 -780805 -780806 780807 -780808 780809 -780810
v -780811 -780812 -780813 -780814 -780815 -780816 -780817 -780818 -780819
v -780820 -780821 -780822 -780823 -780824 -780825 -780826 -780827 -780828
v -780829 -780830 -780831 -780832 -780833 -780834 -780835 -780836 -780837
v -780838 -780839 -780840 -780841 -780842 780843 -780844 780845 -780846
v -780847 -780848 -780849 -780850 -780851 -780852 -780853 -780854 -780855
v -780856 -780857 -780858 -780859 -780860 -780861 -780862 -780863 -780864
v -780865 -780866 -780867 -780868 -780869 -780870 -780871 -780872 -780873
v -780874 -780875 -780876 -780877 -780878 780879 -780880 780881 -780882 780883
v -780884 0
c 
c --- [ run-time profiling ] -------------------------------------------------
c 
c process time taken by individual solving procedures
c (percentage relative to process time for solving)
c 
c         0.33  866.18% parse
c         0.04   99.66% lucky
c         0.04   99.66% search
c         0.00    0.00% simplify
c   =================================
c         0.04    9.36% solve
c 
c last line shows process time for solving
c (percentage relative to total process time)
c 
c --- [ statistics ] ---------------------------------------------------------
c 
c fixed:                    367746        47.09 %  of all variables
c lucky:                         1       100.00 %  of tried
c minimized:                     0         0.00 %  learned literals
c shrunken:                      0         0.00 %  learned literals
c minishrunken:                  0         0.00 %  learned literals
c propagations:             367746         9.73 M  per second
c 
c seconds are measured in process time for solving
c 
c --- [ resources ] ----------------------------------------------------------
c 
c total process time since initialization:         0.40    seconds
c total real time since initialization:            0.41    seconds
c maximum resident set size of process:          316.88    MB
c 
c --- [ shutting down ] ------------------------------------------------------
c 
c exit 10
